
Gurobi 10.0.3 (linux64, gurobi_cl) logging started Thu Nov  2 11:34:54 2023

Set parameter Username
Set parameter TimeLimit to value 3600
Set parameter LogFile to value "RCPSP_616.log"
Set parameter Threads to value 32
Academic license - for non-commercial use only - expires 2024-10-30
Using license file /home/jrivera6/gurobi-licenses/v1003/compute-0-35/gurobi.lic

Gurobi Optimizer version 10.0.3 build v10.0.3rc0 (linux64)
Copyright (c) 2023, Gurobi Optimization, LLC

Read MPS format model from file RCPSP_616.mps
Reading time = 0.03 seconds
RCPSP_616: 19624 rows, 7750 columns, 71898 nonzeros

CPU model: Intel(R) Xeon(R) Gold 6130 CPU @ 2.10GHz, instruction set [SSE2|AVX|AVX2|AVX512]
Thread count: 32 physical cores, 32 logical processors, using up to 32 threads

Optimize a model with 19624 rows, 7750 columns and 71898 nonzeros
Model fingerprint: 0xb360539d
Variable types: 62 continuous, 7688 integer (7688 binary)
Coefficient statistics:
  Matrix range     [1e+00, 3e+02]
  Objective range  [1e+00, 1e+00]
  Bounds range     [1e+00, 1e+00]
  RHS range        [1e+00, 3e+02]
Presolve removed 7070 rows and 2446 columns
Presolve time: 2.70s
Presolved: 12554 rows, 5304 columns, 48279 nonzeros
Variable types: 61 continuous, 5243 integer (5243 binary)

Root relaxation: objective 6.500000e+01, 1721 iterations, 0.04 seconds (0.02 work units)

    Nodes    |    Current Node    |     Objective Bounds      |     Work
 Expl Unexpl |  Obj  Depth IntInf | Incumbent    BestBd   Gap | It/Node Time

     0     0   65.00000    0   10          -   65.00000      -     -    3s
     0     0   65.00000    0   84          -   65.00000      -     -    5s
     0     0   65.00000    0   14          -   65.00000      -     -    6s
     0     0   65.00000    0    4          -   65.00000      -     -    7s
     0     0   65.00000    0    2          -   65.00000      -     -    8s
     0     0   65.00000    0    6          -   65.00000      -     -    8s
     0     0   65.00000    0    2          -   65.00000      -     -    9s
H    0     0                      65.0000000   65.00000  0.00%     -    9s
     0     0   65.00000    0   66   65.00000   65.00000  0.00%     -    9s

Cutting planes:
  Gomory: 1
  Cover: 5
  Implied bound: 41
  MIR: 39
  StrongCG: 3
  Zero half: 1
  RLT: 16
  Relax-and-lift: 17

Explored 1 nodes (9275 simplex iterations) in 9.45 seconds (3.15 work units)
Thread count was 32 (of 32 available processors)

Solution count 1: 65 

Optimal solution found (tolerance 1.00e-04)
Best objective 6.500000000000e+01, best bound 6.500000000000e+01, gap 0.0000%

Wrote result file 'RCPSP_616.sol'

